Instance name: /home/cuong/CLionProjects/uMV-FSTSP/50_dis_rand_ins/v18
Write arg val: 1

drone speed: 1 miles/minute
uav non-eligible customer: 11 
Printing tau:
0 30.8316 24.9046 33.5273 47.1669 34.0562 40.327 64.5889 63.9919 91.293 93.1452 0 
30.8316 0 55.2359 58.2408 54.4989 41.3882 47.659 33.7573 71.3239 98.625 100.477 30.8316 
24.9046 55.2359 0 8.62277 26.4111 51.714 38.4421 88.9932 86.946 66.3884 68.2407 24.9046 
33.5273 58.2408 8.62277 0 29.416 54.7189 41.4469 91.998 89.9509 57.7656 59.6179 33.5273 
47.1669 54.4989 26.4111 29.416 0 25.3029 12.0309 62.5821 60.5349 44.1261 45.9783 47.1669 
34.0562 41.3882 51.714 54.7189 25.3029 0 13.272 37.2791 35.232 57.2367 59.089 34.0562 
40.327 47.659 38.4421 41.4469 12.0309 13.272 0 50.5511 48.504 50.9659 52.8182 40.327 
64.5889 33.7573 88.9932 91.998 62.5821 37.2791 50.5511 0 41.4985 68.7996 70.6518 64.5889 
63.9919 71.3239 86.946 89.9509 60.5349 35.232 48.504 41.4985 0 51.0043 55.8274 63.9919 
91.293 98.625 66.3884 57.7656 44.1261 57.2367 50.9659 68.7996 51.0043 0 4.82309 91.293 
93.1452 100.477 68.2407 59.6179 45.9783 59.089 52.8182 70.6518 55.8274 4.82309 0 93.1452 
0 0 0 0 0 0 0 0 0 0 0 0 
Printing tau_prime:
0 8.40347 9.24588 11.483 12.5183 11.5755 11.3227 18.1356 23.7266 24.4003 24.7629 0 
8.40347 0 16.9585 18.8649 16.348 11.0144 13.3991 11.9445 20.6975 26.6476 27.3998 8.40347 
9.24588 16.9585 0 2.42131 9.15937 13.9258 10.9832 23.6065 25.2777 20.0182 19.8877 9.24588 
11.483 18.8649 2.42131 0 8.5978 14.5102 11.1372 24.5695 25.1827 18.4737 18.2149 11.483 
12.5183 16.348 9.15937 8.5978 0 7.55664 3.66971 17.8377 16.6602 11.9705 12.2556 12.5183 
11.5755 11.0144 13.9258 14.5102 7.55664 0 3.89232 10.3497 12.2592 15.7429 16.5928 11.5755 
11.3227 13.3991 10.9832 11.1372 3.66971 3.89232 0 14.2141 14.3107 13.5306 14.1395 11.3227 
18.1356 11.9445 23.6065 24.5695 17.8377 10.3497 14.2141 0 11.0173 23.0371 24.2175 18.1356 
23.7266 20.6975 25.2777 25.1827 16.6602 12.2592 14.3107 11.0173 0 15.3402 16.7004 23.7266 
24.4003 26.6476 20.0182 18.4737 11.9705 15.7429 13.5306 23.0371 15.3402 0 1.36998 24.4003 
24.7629 27.3998 19.8877 18.2149 12.2556 16.5928 14.1395 24.2175 16.7004 1.36998 0 24.7629 
0 0 0 0 0 0 0 0 0 0 0 0 
Version identifier: 22.1.1.0 | 2022-11-28 | 9160aff4d
CPXPARAM_MIP_Tolerances_Integrality              0
Tried aggregator 1 time.
MIP Presolve eliminated 1 rows and 12 columns.
MIP Presolve modified 20 coefficients.
Reduced MIP has 122 rows, 120 columns, and 510 nonzeros.
Reduced MIP has 110 binaries, 0 generals, 0 SOSs, and 0 indicators.
Presolve time = 0.00 sec. (0.27 ticks)
Found incumbent of value 584.037900 after 0.00 sec. (0.75 ticks)
Probing time = 0.00 sec. (0.26 ticks)
Cover probing fixed 0 vars, tightened 10 bounds.
Tried aggregator 1 time.
Detecting symmetries...
MIP Presolve eliminated 10 rows and 0 columns.
MIP Presolve modified 180 coefficients.
Reduced MIP has 112 rows, 120 columns, and 490 nonzeros.
Reduced MIP has 110 binaries, 0 generals, 0 SOSs, and 0 indicators.
Presolve time = 0.00 sec. (0.35 ticks)
Probing time = 0.00 sec. (0.26 ticks)
Clique table members: 67.
MIP emphasis: balance optimality and feasibility.
MIP search method: dynamic search.
Parallel mode: deterministic, using up to 20 threads.
Root relaxation solution time = 0.00 sec. (0.17 ticks)

        Nodes                                         Cuts/
   Node  Left     Objective  IInf  Best Integer    Best Bound    ItCnt     Gap

*     0+    0                          584.0379        0.0000           100.00%
      0     0      237.0921    18      584.0379      237.0921       19   59.40%
      0     0      296.9400    18      584.0379      Cuts: 36       38   49.16%
*     0+    0                          428.3077      296.9400            30.67%
      0     0      301.7691     7      428.3077      Cuts: 20       51   29.54%
*     0+    0                          371.2740      301.7691            18.72%
*     0+    0                          308.7167      301.7691             2.25%
      0     0        cutoff            308.7167      308.7167       51    0.00%
Elapsed time = 0.02 sec. (6.00 ticks, tree = 0.01 MB, solutions = 4)

Clique cuts applied:  4
Implied bound cuts applied:  3
Mixed integer rounding cuts applied:  1
Multi commodity flow cuts applied:  4
Gomory fractional cuts applied:  1

Root node processing (before b&c):
  Real time             =    0.02 sec. (6.01 ticks)
Parallel b&c, 20 threads:
  Real time             =    0.00 sec. (0.00 ticks)
  Sync time (average)   =    0.00 sec.
  Wait time (average)   =    0.00 sec.
                          ------------
Total (root+branch&cut) =    0.02 sec. (6.01 ticks)

TSP solution for this instance: 0 1 7 8 5 6 4 10 9 3 2 11 
12
Warmstart X[1][0] == 1
Warmstart X[2][1] == 1
Warmstart X[3][7] == 1
Warmstart X[4][8] == 1
Warmstart X[5][5] == 1
Warmstart X[6][6] == 1
Warmstart X[7][4] == 1
Warmstart X[8][10] == 1
Warmstart X[9][9] == 1
Warmstart X[10][3] == 1
Warmstart X[11][2] == 1
---------------------------------------------
Calculate max stage gap for sortie.... 
Stage gap of 4 with smallest length = 19.2924 violated endurance constraint!
---------------------------------------------
Variable z[1][5] was set to 0.
Variable z[1][6] was set to 0.
Variable z[1][7] was set to 0.
Variable z[1][8] was set to 0.
Variable z[1][9] was set to 0.
Variable z[1][10] was set to 0.
Variable z[1][11] was set to 0.
Variable z[1][12] was set to 0.
Variable z[2][6] was set to 0.
Variable z[2][7] was set to 0.
Variable z[2][8] was set to 0.
Variable z[2][9] was set to 0.
Variable z[2][10] was set to 0.
Variable z[2][11] was set to 0.
Variable z[2][12] was set to 0.
Variable z[3][7] was set to 0.
Variable z[3][8] was set to 0.
Variable z[3][9] was set to 0.
Variable z[3][10] was set to 0.
Variable z[3][11] was set to 0.
Variable z[3][12] was set to 0.
Variable z[4][8] was set to 0.
Variable z[4][9] was set to 0.
Variable z[4][10] was set to 0.
Variable z[4][11] was set to 0.
Variable z[4][12] was set to 0.
Variable z[5][9] was set to 0.
Variable z[5][10] was set to 0.
Variable z[5][11] was set to 0.
Variable z[5][12] was set to 0.
Variable z[6][10] was set to 0.
Variable z[6][11] was set to 0.
Variable z[6][12] was set to 0.
Variable z[7][11] was set to 0.
Variable z[7][12] was set to 0.
Variable z[8][12] was set to 0.
Num constraint added = 5940
Warning:  Output names have been modified due to duplicate names or characters invalid in LP format.
Version identifier: 22.1.1.0 | 2022-11-28 | 9160aff4d
CPXPARAM_TimeLimit                               200
CPXPARAM_MIP_Tolerances_Integrality              0
1 of 1 MIP starts provided solutions.
MIP start 'm1' defined initial solution with objective 308.7167.
Tried aggregator 2 times.
MIP Presolve eliminated 7730 rows and 2433 columns.
MIP Presolve modified 2131 coefficients.
Aggregator did 37 substitutions.
Reduced MIP has 1224 rows, 2306 columns, and 42304 nonzeros.
Reduced MIP has 2285 binaries, 0 generals, 0 SOSs, and 0 indicators.
Presolve time = 0.06 sec. (154.85 ticks)
Probing fixed 176 vars, tightened 0 bounds.
Probing changed sense of 4 constraints.
Probing time = 0.03 sec. (65.43 ticks)
Tried aggregator 2 times.
Detecting symmetries...
MIP Presolve eliminated 37 rows and 176 columns.
MIP Presolve modified 78 coefficients.
Aggregator did 13 substitutions.
Reduced MIP has 1174 rows, 2117 columns, and 37288 nonzeros.
Reduced MIP has 2096 binaries, 0 generals, 0 SOSs, and 0 indicators.
Presolve time = 0.03 sec. (56.12 ticks)
Probing time = 0.00 sec. (4.89 ticks)
Clique table members: 10634.
MIP emphasis: balance optimality and feasibility.
MIP search method: dynamic search.
Parallel mode: deterministic, using up to 20 threads.
Root relaxation solution time = 0.13 sec. (239.61 ticks)

        Nodes                                         Cuts/
   Node  Left     Objective  IInf  Best Integer    Best Bound    ItCnt     Gap

*     0+    0                          308.7167        0.0000           100.00%
      0     0      195.0318   307      308.7167      195.0318       30   36.82%
*     0+    0                          308.4965      195.0318            36.78%
      0     0      201.7426   303      308.4965      Cuts: 42     1418   32.87%
      0     0      203.6661   329      308.4965      Cuts: 18     2156   32.87%
      0     0      204.5061   317      308.4965  ZeroHalf: 12     2678   32.87%
      0     0      205.8573   415      308.4965  ZeroHalf: 12     3086   32.87%
      0     0      206.8484   421      308.4965   ZeroHalf: 7     3590   32.87%
Detecting symmetries...
      0     0      207.1240   427      308.4965       Cuts: 8     3812   32.86%
      0     0      207.1574   417      308.4965   ZeroHalf: 1     3873   32.85%
      0     0      207.2165   414      308.4965   ZeroHalf: 1     3952   32.83%
      0     0      207.5252   440      308.4965   ZeroHalf: 2     4169   32.73%
Detecting symmetries...
      0     2      207.5252   440      308.4965      213.5985     4169   30.76%
Elapsed time = 1.58 sec. (2869.34 ticks, tree = 0.02 MB, solutions = 2)
      3     3      211.8514   338      308.4965      213.5985     5576   30.76%
     13     6    infeasible            308.4965      213.5985    16539   30.76%
     46     6        cutoff            308.4965      214.8456    22231   30.36%
    354    40      301.9306   206      308.4965      219.7050    60213   28.78%
    386    60      270.8275   134      308.4965      219.7050    76966   28.78%
    617    98      277.3295    80      308.4965      232.8474   116954   24.52%
    974   212    infeasible            308.4965      239.3250   156475   22.42%
   1232   386        cutoff            308.4965      239.3250   201708   22.42%
*  1268   416      integral     0      299.8692      239.3250   227215   20.19%
   1318   393      266.7542    87      299.8692      242.8273   236045   19.02%
*  2125   485      integral     0      291.7073      250.9119   320349   13.99%
   2638   254    infeasible            291.7073      270.2916   428610    7.34%
Elapsed time = 4.48 sec. (6058.93 ticks, tree = 0.84 MB, solutions = 6)

GUB cover cuts applied:  6
Cover cuts applied:  71
Implied bound cuts applied:  5
Mixed integer rounding cuts applied:  1
Zero-half cuts applied:  33
Gomory fractional cuts applied:  2

Root node processing (before b&c):
  Real time             =    1.54 sec. (2824.79 ticks)
Parallel b&c, 20 threads:
  Real time             =    3.06 sec. (3362.54 ticks)
  Sync time (average)   =    1.10 sec.
  Wait time (average)   =    0.00 sec.
                          ------------
Total (root+branch&cut) =    4.60 sec. (6187.32 ticks)
Feasible solution found!
Truck nodes:
Stage 1 at customer 0 with arrival time is: 0
Stage 1 at customer 0 with departure time is: 0
Stage 2 at customer 1 with arrival time is: 30.8316
Stage 2 at customer 1 with departure time is: 30.8316
Stage 3 at customer 7 with arrival time is: 64.5889
Stage 3 at customer 7 with departure time is: 64.5889
Stage 4 at customer 8 with arrival time is: 106.087
Stage 4 at customer 8 with departure time is: 106.087
Stage 5 at customer 9 with arrival time is: 157.092
Stage 5 at customer 9 with departure time is: 157.092
Stage 6 at customer 10 with arrival time is: 161.915
Stage 6 at customer 10 with departure time is: 161.915
Stage 7 at customer 6 with arrival time is: 214.733
Stage 7 at customer 6 with departure time is: 215.733
Stage 8 at customer 4 with arrival time is: 227.764
Stage 8 at customer 4 with departure time is: 228.764
Stage 9 at customer 3 with arrival time is: 258.18
Stage 9 at customer 3 with departure time is: 258.18
Stage 10 at customer 2 with arrival time is: 266.803
Stage 10 at customer 2 with departure time is: 266.803
Stage 11 at customer 11 with arrival time is: 291.707
Stage 11 at customer 11 with departure time is: 291.707
Truck arcs:
Arc 1 connecting 0 and 1 with cost 30.8316 
Arc 2 connecting 1 and 7 with cost 33.7573 
Arc 3 connecting 7 and 8 with cost 41.4985 
Arc 4 connecting 8 and 9 with cost 51.0043 
Arc 5 connecting 9 and 10 with cost 4.82309 
Arc 6 connecting 10 and 6 with cost 52.8182 
Arc 7 connecting 6 and 4 with cost 12.0309 
Arc 8 connecting 4 and 3 with cost 29.416 
Arc 9 connecting 3 and 2 with cost 8.62277 
Arc 10 connecting 2 and 11 with cost 24.9046 
Customer 5 served by drone.
Drone fly from 6 at stage 7 to serve 5 and then fly back to 4 at stage 8. 
Truck arcs during this sortie: 6--->4
Truck travel time from stage 7 to 8 is: 12.0309
Total drone travel time: 11.449
Drone arrival time: 227.182
Truck arrival time: 227.764
Truck departure time = max(d/a, t/a) plus (sl/sr): 228.764
Done!
-------------------------Re-calculated objective-----------------------
291.707
------------------------------------------------------------------------
Solve time: 4.599
OBJECTIVE VALUE: 291.707, NUMBER OF SORTIES: 1.
Number of revisit: 0
In write mode
